c CNF
c from Selman's wff generator
p cnf 140  1500
1.0 -99 -84 0
1.0 -6 -89 0
1.0 2 -20 0
1.0 24 -108 0
1.0 -78 -25 0
1.0 -120 -73 0
1.0 -136 77 0
1.0 -104 77 0
1.0 20 79 0
1.0 -27 126 0
1.0 -6 136 0
1.0 -104 135 0
1.0 20 -81 0
1.0 -13 111 0
1.0 48 56 0
1.0 -132 130 0
1.0 68 -94 0
1.0 -79 -139 0
1.0 -135 -102 0
1.0 -97 -98 0
1.0 -39 26 0
1.0 136 94 0
1.0 9 -105 0
1.0 94 126 0
1.0 -79 48 0
1.0 -47 98 0
1.0 -60 74 0
1.0 -32 137 0
1.0 -22 106 0
1.0 60 42 0
1.0 6 -114 0
1.0 -99 79 0
1.0 127 95 0
1.0 -53 -16 0
1.0 -90 -71 0
1.0 68 -119 0
1.0 -85 32 0
1.0 -73 -27 0
1.0 140 -139 0
1.0 -78 17 0
1.0 -112 49 0
1.0 -65 30 0
1.0 -101 123 0
1.0 -101 46 0
1.0 77 84 0
1.0 -110 -120 0
1.0 118 125 0
1.0 -1 -61 0
1.0 -110 75 0
1.0 104 132 0
1.0 -114 -42 0
1.0 -87 68 0
1.0 11 -28 0
1.0 -8 -121 0
1.0 105 -16 0
1.0 -76 19 0
1.0 -93 74 0
1.0 -65 127 0
1.0 -28 -71 0
1.0 -139 92 0
1.0 -120 -32 0
1.0 -12 -79 0
1.0 -94 12 0
1.0 -30 -20 0
1.0 93 14 0
1.0 140 18 0
1.0 89 -28 0
1.0 -120 -1 0
1.0 -32 85 0
1.0 24 -56 0
1.0 68 -103 0
1.0 -122 -81 0
1.0 -94 -116 0
1.0 -134 -7 0
1.0 35 123 0
1.0 -123 124 0
1.0 69 -57 0
1.0 113 79 0
1.0 -41 74 0
1.0 -15 -74 0
1.0 50 61 0
1.0 -41 125 0
1.0 13 -104 0
1.0 76 -20 0
1.0 -78 16 0
1.0 84 4 0
1.0 140 -81 0
1.0 -38 -140 0
1.0 61 -26 0
1.0 -10 94 0
1.0 58 -130 0
1.0 -10 -83 0
1.0 -99 90 0
1.0 94 -22 0
1.0 102 -92 0
1.0 -92 8 0
1.0 -34 90 0
1.0 43 -98 0
1.0 -88 -84 0
1.0 27 -80 0
1.0 29 -10 0
1.0 -31 -86 0
1.0 -37 -100 0
1.0 -108 77 0
1.0 27 113 0
1.0 71 110 0
1.0 -54 -124 0
1.0 63 -22 0
1.0 -32 90 0
1.0 36 -8 0
1.0 108 -46 0
1.0 -123 60 0
1.0 -33 -121 0
1.0 -91 107 0
1.0 -91 99 0
1.0 -120 8 0
1.0 -98 -38 0
1.0 45 127 0
1.0 -32 126 0
1.0 45 -23 0
1.0 3 -100 0
1.0 -66 23 0
1.0 122 -40 0
1.0 -48 133 0
1.0 -30 -45 0
1.0 -32 63 0
1.0 -49 -34 0
1.0 56 100 0
1.0 59 -72 0
1.0 95 -108 0
1.0 8 30 0
1.0 22 9 0
1.0 -53 -58 0
1.0 121 73 0
1.0 -106 85 0
1.0 -45 -12 0
1.0 -84 90 0
1.0 -57 88 0
1.0 -117 -10 0
1.0 18 -39 0
1.0 96 -36 0
1.0 -108 -23 0
1.0 -108 86 0
1.0 -98 33 0
1.0 -122 62 0
1.0 -10 -51 0
1.0 -60 -82 0
1.0 121 -35 0
1.0 70 23 0
1.0 -45 116 0
1.0 61 64 0
1.0 96 -137 0
1.0 -59 137 0
1.0 47 -80 0
1.0 22 39 0
1.0 -74 52 0
1.0 74 -89 0
1.0 -64 -11 0
1.0 74 12 0
1.0 -9 60 0
1.0 -57 -84 0
1.0 24 48 0
1.0 87 114 0
1.0 25 -124 0
1.0 -72 -63 0
1.0 -74 66 0
1.0 77 -121 0
1.0 41 -4 0
1.0 88 -7 0
1.0 54 130 0
1.0 104 -62 0
1.0 -45 -43 0
1.0 -106 23 0
1.0 88 91 0
1.0 -72 -84 0
1.0 87 122 0
1.0 128 129 0
1.0 119 -20 0
1.0 81 -62 0
1.0 -105 17 0
1.0 -39 -73 0
1.0 24 -16 0
1.0 99 122 0
1.0 -103 -136 0
1.0 -125 -84 0
1.0 104 35 0
1.0 97 116 0
1.0 -132 131 0
1.0 64 -100 0
1.0 115 -29 0
1.0 -10 -109 0
1.0 105 -57 0
1.0 1 -56 0
1.0 91 99 0
1.0 -74 38 0
1.0 -28 -98 0
1.0 58 113 0
1.0 -2 80 0
1.0 -48 82 0
1.0 -139 -48 0
1.0 -103 14 0
1.0 -112 110 0
1.0 -7 67 0
1.0 -25 -66 0
1.0 -38 24 0
1.0 104 78 0
1.0 20 34 0
1.0 81 124 0
1.0 -138 -118 0
1.0 88 -57 0
1.0 124 129 0
1.0 -115 -91 0
1.0 -64 126 0
1.0 36 113 0
1.0 135 -40 0
1.0 -55 54 0
1.0 -11 85 0
1.0 99 -75 0
1.0 -63 58 0
1.0 8 -77 0
1.0 -62 -137 0
1.0 109 -95 0
1.0 -134 35 0
1.0 -89 -58 0
1.0 2 -63 0
1.0 137 75 0
1.0 -132 -32 0
1.0 -108 133 0
1.0 -129 -4 0
1.0 99 -10 0
1.0 45 -4 0
1.0 -61 84 0
1.0 6 116 0
1.0 50 63 0
1.0 94 18 0
1.0 -10 -111 0
1.0 -115 -74 0
1.0 84 -19 0
1.0 -22 -28 0
1.0 112 -73 0
1.0 -48 -25 0
1.0 -88 41 0
1.0 -59 39 0
1.0 9 -51 0
1.0 125 24 0
1.0 42 83 0
1.0 111 -38 0
1.0 110 9 0
1.0 -33 -38 0
1.0 79 -113 0
1.0 11 122 0
1.0 32 132 0
1.0 -16 59 0
1.0 -1 -140 0
1.0 38 125 0
1.0 133 112 0
1.0 10 -139 0
1.0 -111 -26 0
1.0 -8 9 0
1.0 140 2 0
1.0 -60 138 0
1.0 138 53 0
1.0 38 85 0
1.0 57 67 0
1.0 65 62 0
1.0 88 -98 0
1.0 -107 -16 0
1.0 -17 -48 0
1.0 -46 54 0
1.0 -107 27 0
1.0 112 121 0
1.0 -48 -90 0
1.0 12 -107 0
1.0 65 24 0
1.0 -39 49 0
1.0 -97 119 0
1.0 32 -126 0
1.0 13 -124 0
1.0 105 36 0
1.0 -126 -104 0
1.0 -71 -131 0
1.0 14 12 0
1.0 -61 23 0
1.0 1 96 0
1.0 82 -65 0
1.0 -49 32 0
1.0 68 87 0
1.0 51 -7 0
1.0 -137 7 0
1.0 18 -3 0
1.0 -26 29 0
1.0 124 114 0
1.0 38 -90 0
1.0 -121 95 0
1.0 -42 -122 0
1.0 -129 -10 0
1.0 -17 51 0
1.0 -53 -58 0
1.0 -86 67 0
1.0 -40 -23 0
1.0 112 -13 0
1.0 108 123 0
1.0 -104 -101 0
1.0 -111 -34 0
1.0 85 -72 0
1.0 -130 -133 0
1.0 59 -39 0
1.0 61 139 0
1.0 -11 -61 0
1.0 -43 125 0
1.0 -86 88 0
1.0 122 35 0
1.0 107 -64 0
1.0 56 -136 0
1.0 -35 73 0
1.0 110 127 0
1.0 -110 -22 0
1.0 9 -79 0
1.0 -37 -96 0
1.0 138 2 0
1.0 -64 134 0
1.0 -24 91 0
1.0 -24 -48 0
1.0 35 136 0
1.0 -18 95 0
1.0 -34 138 0
1.0 93 -59 0
1.0 61 -39 0
1.0 32 128 0
1.0 -78 -137 0
1.0 -45 -65 0
1.0 -61 -116 0
1.0 -71 -41 0
1.0 39 -85 0
1.0 -3 35 0
1.0 73 -94 0
1.0 81 90 0
1.0 -86 -133 0
1.0 58 -74 0
1.0 50 -12 0
1.0 -53 -19 0
1.0 -103 -118 0
1.0 13 -25 0
1.0 118 75 0
1.0 -24 -68 0
1.0 -61 -57 0
1.0 -131 30 0
1.0 41 -11 0
1.0 29 -104 0
1.0 -81 -128 0
1.0 13 -125 0
1.0 59 -87 0
1.0 15 -127 0
1.0 44 12 0
1.0 -41 -9 0
1.0 19 92 0
1.0 56 -80 0
1.0 -68 -135 0
1.0 -119 127 0
1.0 -73 -120 0
1.0 106 31 0
1.0 42 -75 0
1.0 83 -116 0
1.0 68 -59 0
1.0 -139 47 0
1.0 41 67 0
1.0 53 -77 0
1.0 -57 35 0
1.0 66 -94 0
1.0 29 -74 0
1.0 -49 -73 0
1.0 -131 -82 0
1.0 128 76 0
1.0 2 61 0
1.0 138 104 0
1.0 -139 111 0
1.0 65 -108 0
1.0 41 -80 0
1.0 13 138 0
1.0 -79 22 0
1.0 -98 -47 0
1.0 108 -3 0
1.0 106 -52 0
1.0 23 -96 0
1.0 63 -58 0
1.0 138 105 0
1.0 102 117 0
1.0 -139 -6 0
1.0 53 62 0
1.0 -65 68 0
1.0 -119 6 0
1.0 -101 22 0
1.0 -80 -129 0
1.0 -94 39 0
1.0 -16 100 0
1.0 -105 63 0
1.0 125 24 0
1.0 -91 23 0
1.0 -28 -73 0
1.0 95 19 0
1.0 -8 -139 0
1.0 38 57 0
1.0 16 -111 0
1.0 -34 35 0
1.0 58 34 0
1.0 -56 -5 0
1.0 -78 8 0
1.0 26 84 0
1.0 -83 -35 0
1.0 92 -10 0
1.0 -121 97 0
1.0 132 85 0
1.0 119 98 0
1.0 -103 134 0
1.0 -2 50 0
1.0 134 -137 0
1.0 32 -54 0
1.0 -64 86 0
1.0 43 38 0
1.0 -122 -89 0
1.0 -46 140 0
1.0 134 -112 0
1.0 22 119 0
1.0 -116 82 0
1.0 -136 5 0
1.0 -91 -79 0
1.0 117 -20 0
1.0 108 111 0
1.0 110 -52 0
1.0 -24 68 0
1.0 47 120 0
1.0 62 10 0
1.0 -14 -17 0
1.0 -96 -80 0
1.0 99 125 0
1.0 -95 88 0
1.0 140 100 0
1.0 28 -126 0
1.0 -106 128 0
1.0 -137 124 0
1.0 -1 -62 0
1.0 2 -72 0
1.0 56 59 0
1.0 -7 107 0
1.0 67 -102 0
1.0 88 98 0
1.0 -86 -124 0
1.0 -108 -26 0
1.0 88 -67 0
1.0 138 93 0
1.0 12 75 0
1.0 42 -137 0
1.0 98 54 0
1.0 -12 -89 0
1.0 73 39 0
1.0 64 132 0
1.0 -59 72 0
1.0 -25 8 0
1.0 83 -33 0
1.0 -29 -79 0
1.0 132 12 0
1.0 -100 130 0
1.0 -29 -139 0
1.0 -131 80 0
1.0 -12 62 0
1.0 -69 75 0
1.0 -107 -127 0
1.0 -65 85 0
1.0 96 15 0
1.0 -5 20 0
1.0 -19 20 0
1.0 100 -86 0
1.0 7 -23 0
1.0 -97 80 0
1.0 67 -80 0
1.0 25 -41 0
1.0 55 107 0
1.0 -127 124 0
1.0 4 -75 0
1.0 -20 70 0
1.0 -92 81 0
1.0 -21 -49 0
1.0 -129 29 0
1.0 -70 -126 0
1.0 93 -28 0
1.0 -11 133 0
1.0 -67 -96 0
1.0 -26 -51 0
1.0 132 76 0
1.0 -124 -137 0
1.0 -26 -38 0
1.0 -23 -117 0
1.0 4 120 0
1.0 113 137 0
1.0 -92 -6 0
1.0 -57 100 0
1.0 35 120 0
1.0 -117 19 0
1.0 -56 -115 0
1.0 91 -34 0
1.0 -14 -108 0
1.0 105 139 0
1.0 5 11 0
1.0 -110 128 0
1.0 107 -28 0
1.0 -46 -14 0
1.0 129 -40 0
1.0 74 -94 0
1.0 -62 4 0
1.0 -2 98 0
1.0 108 -115 0
1.0 -102 34 0
1.0 61 -106 0
1.0 119 -96 0
1.0 136 108 0
1.0 62 -80 0
1.0 84 -88 0
1.0 -46 90 0
1.0 -65 18 0
1.0 -51 -33 0
1.0 -138 -107 0
1.0 -62 7 0
1.0 -114 130 0
1.0 69 2 0
1.0 -90 -27 0
1.0 117 49 0
1.0 66 -99 0
1.0 -131 -22 0
1.0 -128 27 0
1.0 -33 48 0
1.0 37 -94 0
1.0 -96 60 0
1.0 87 75 0
1.0 -124 49 0
1.0 7 -30 0
1.0 -51 112 0
1.0 -139 90 0
1.0 138 54 0
1.0 -7 -79 0
1.0 138 -117 0
1.0 52 48 0
1.0 -96 -110 0
1.0 -140 108 0
1.0 -80 -86 0
1.0 -35 36 0
1.0 90 -5 0
1.0 83 -65 0
1.0 42 -66 0
1.0 -113 31 0
1.0 140 -72 0
1.0 39 -131 0
1.0 76 -137 0
1.0 32 -23 0
1.0 -28 -68 0
1.0 133 136 0
1.0 -61 75 0
1.0 -105 -116 0
1.0 -48 -132 0
1.0 122 13 0
1.0 10 119 0
1.0 2 29 0
1.0 -97 -100 0
1.0 -95 49 0
1.0 123 -111 0
1.0 87 -9 0
1.0 -140 -16 0
1.0 29 3 0
1.0 -122 -65 0
1.0 94 102 0
1.0 -61 10 0
1.0 59 121 0
1.0 -91 77 0
1.0 86 -41 0
1.0 57 -110 0
1.0 -112 -105 0
1.0 -29 -62 0
1.0 23 -87 0
1.0 -97 30 0
1.0 10 -127 0
1.0 -64 44 0
1.0 -85 27 0
1.0 -136 -21 0
1.0 125 68 0
1.0 -129 136 0
1.0 -83 28 0
1.0 57 51 0
1.0 38 -110 0
1.0 -14 -23 0
1.0 -50 65 0
1.0 85 43 0
1.0 -111 -74 0
1.0 -70 80 0
1.0 107 63 0
1.0 -113 106 0
1.0 -75 -115 0
1.0 138 82 0
1.0 -6 -3 0
1.0 46 106 0
1.0 -40 -105 0
1.0 -44 84 0
1.0 6 -33 0
1.0 -138 -122 0
1.0 97 -101 0
1.0 42 64 0
1.0 -67 -94 0
1.0 -59 -18 0
1.0 122 103 0
1.0 46 48 0
1.0 80 -69 0
1.0 51 20 0
1.0 -120 28 0
1.0 92 101 0
1.0 -54 -66 0
1.0 84 118 0
1.0 -80 -137 0
1.0 45 -126 0
1.0 55 -68 0
1.0 -88 70 0
1.0 -98 71 0
1.0 31 -16 0
1.0 81 57 0
1.0 -34 -126 0
1.0 -122 39 0
1.0 25 -135 0
1.0 63 71 0
1.0 -1 -15 0
1.0 85 -24 0
1.0 39 -73 0
1.0 130 114 0
1.0 -99 -91 0
1.0 -130 94 0
1.0 -89 116 0
1.0 47 137 0
1.0 11 -97 0
1.0 120 11 0
1.0 -84 -128 0
1.0 -101 140 0
1.0 -91 140 0
1.0 -106 -94 0
1.0 -47 4 0
1.0 24 -34 0
1.0 -38 9 0
1.0 -78 119 0
1.0 116 -63 0
1.0 18 -86 0
1.0 86 5 0
1.0 -98 4 0
1.0 7 120 0
1.0 14 100 0
1.0 -109 110 0
1.0 88 112 0
1.0 138 -39 0
1.0 104 -136 0
1.0 7 80 0
1.0 73 71 0
1.0 118 -46 0
1.0 56 116 0
1.0 -73 92 0
1.0 63 37 0
1.0 75 59 0
1.0 54 33 0
1.0 113 74 0
1.0 -4 -86 0
1.0 132 22 0
1.0 -137 104 0
1.0 -55 -45 0
1.0 82 121 0
1.0 39 -42 0
1.0 74 62 0
1.0 -135 -81 0
1.0 -26 47 0
1.0 68 39 0
1.0 -2 137 0
1.0 42 -83 0
1.0 -63 -72 0
1.0 114 53 0
1.0 -115 -64 0
1.0 -5 42 0
1.0 89 88 0
1.0 -127 -112 0
1.0 109 73 0
1.0 -16 -80 0
1.0 12 -132 0
1.0 44 91 0
1.0 -15 123 0
1.0 25 -95 0
1.0 -43 97 0
1.0 69 17 0
1.0 62 47 0
1.0 40 94 0
1.0 -133 -137 0
1.0 -28 93 0
1.0 80 117 0
1.0 -26 -7 0
1.0 135 106 0
1.0 123 87 0
1.0 133 80 0
1.0 34 58 0
1.0 -54 -138 0
1.0 -90 68 0
1.0 44 124 0
1.0 130 -1 0
1.0 107 -101 0
1.0 -47 111 0
1.0 -50 -38 0
1.0 -95 135 0
1.0 -132 -79 0
1.0 -6 39 0
1.0 -23 35 0
1.0 -36 29 0
1.0 -130 44 0
1.0 -14 84 0
1.0 122 -6 0
1.0 -140 -116 0
1.0 -54 33 0
1.0 -72 -44 0
1.0 -79 -87 0
1.0 -115 -104 0
1.0 -8 68 0
1.0 -11 -74 0
1.0 80 -92 0
1.0 -68 -12 0
1.0 45 -4 0
1.0 -48 -8 0
1.0 -94 38 0
1.0 2 77 0
1.0 4 32 0
1.0 106 117 0
1.0 -69 -74 0
1.0 -85 -56 0
1.0 -59 -16 0
1.0 -23 -38 0
1.0 75 -52 0
1.0 -129 -76 0
1.0 108 -118 0
1.0 -94 12 0
1.0 85 102 0
1.0 18 -134 0
1.0 9 125 0
1.0 22 -134 0
1.0 46 52 0
1.0 127 -120 0
1.0 98 31 0
1.0 -42 -5 0
1.0 106 -91 0
1.0 84 -34 0
1.0 -19 101 0
1.0 -95 -131 0
1.0 42 31 0
1.0 -11 -59 0
1.0 90 -10 0
1.0 -14 -92 0
1.0 -42 -133 0
1.0 -26 22 0
1.0 -123 -61 0
1.0 -52 -83 0
1.0 -113 -110 0
1.0 -28 -105 0
1.0 -115 -110 0
1.0 -62 -85 0
1.0 -77 -72 0
1.0 93 -26 0
1.0 86 -92 0
1.0 -34 88 0
1.0 -57 -73 0
1.0 37 82 0
1.0 -52 -28 0
1.0 -112 108 0
1.0 39 -23 0
1.0 49 -17 0
1.0 -109 78 0
1.0 25 -82 0
1.0 14 140 0
1.0 82 -85 0
1.0 -113 -61 0
1.0 -29 40 0
1.0 63 -3 0
1.0 -20 -125 0
1.0 -63 -96 0
1.0 38 140 0
1.0 -139 -53 0
1.0 -138 -23 0
1.0 83 -37 0
1.0 77 -46 0
1.0 -48 96 0
1.0 81 74 0
1.0 -30 44 0
1.0 -43 120 0
1.0 -32 79 0
1.0 -101 54 0
1.0 90 53 0
1.0 98 52 0
1.0 -8 -135 0
1.0 -69 -126 0
1.0 29 -42 0
1.0 -21 3 0
1.0 -81 95 0
1.0 -8 -82 0
1.0 -134 -98 0
1.0 9 97 0
1.0 -28 105 0
1.0 56 -30 0
1.0 -55 114 0
1.0 -87 32 0
1.0 114 38 0
1.0 122 -7 0
1.0 -130 -140 0
1.0 96 -104 0
1.0 -69 -74 0
1.0 -104 37 0
1.0 -10 -60 0
1.0 -91 72 0
1.0 -110 -46 0
1.0 52 28 0
1.0 28 -118 0
1.0 -82 43 0
1.0 -116 -102 0
1.0 -139 74 0
1.0 -134 -32 0
1.0 103 -102 0
1.0 8 128 0
1.0 -15 54 0
1.0 32 -2 0
1.0 -45 132 0
1.0 -93 -115 0
1.0 -49 56 0
1.0 -87 66 0
1.0 -28 134 0
1.0 -121 -7 0
1.0 60 -56 0
1.0 58 -63 0
1.0 -54 45 0
1.0 -19 81 0
1.0 -137 -59 0
1.0 -125 95 0
1.0 88 116 0
1.0 122 1 0
1.0 -57 -102 0
1.0 -24 -56 0
1.0 -100 -58 0
1.0 139 -43 0
1.0 -102 -15 0
1.0 -110 72 0
1.0 -47 3 0
1.0 -4 50 0
1.0 12 63 0
1.0 -118 -110 0
1.0 27 57 0
1.0 100 102 0
1.0 117 -97 0
1.0 28 -102 0
1.0 -105 -128 0
1.0 38 34 0
1.0 -96 -61 0
1.0 31 57 0
1.0 -114 -66 0
1.0 -27 101 0
1.0 -58 -138 0
1.0 100 90 0
1.0 78 -124 0
1.0 17 -59 0
1.0 120 108 0
1.0 24 -55 0
1.0 120 8 0
1.0 109 63 0
1.0 -61 97 0
1.0 -46 -132 0
1.0 -115 98 0
1.0 122 -104 0
1.0 -9 21 0
1.0 87 -110 0
1.0 39 -49 0
1.0 58 89 0
1.0 60 41 0
1.0 124 -43 0
1.0 -1 -18 0
1.0 121 -2 0
1.0 22 -42 0
1.0 12 95 0
1.0 4 126 0
1.0 -75 -32 0
1.0 73 135 0
1.0 38 72 0
1.0 89 4 0
1.0 5 90 0
1.0 -132 111 0
1.0 65 58 0
1.0 -43 -64 0
1.0 -95 65 0
1.0 -60 -17 0
1.0 -89 98 0
1.0 -101 -16 0
1.0 -106 -24 0
1.0 -134 126 0
1.0 -44 -12 0
1.0 75 117 0
1.0 42 -35 0
1.0 52 -1 0
1.0 98 54 0
1.0 70 2 0
1.0 -26 15 0
1.0 -1 91 0
1.0 -102 66 0
1.0 43 -52 0
1.0 87 -124 0
1.0 -124 -104 0
1.0 -18 -34 0
1.0 -36 23 0
1.0 -37 112 0
1.0 -62 19 0
1.0 85 -69 0
1.0 -121 127 0
1.0 110 -116 0
1.0 79 -62 0
1.0 95 -35 0
1.0 57 -24 0
1.0 -136 132 0
1.0 -11 -71 0
1.0 -140 -1 0
1.0 127 -12 0
1.0 127 113 0
1.0 34 -84 0
1.0 -118 65 0
1.0 -89 -30 0
1.0 21 119 0
1.0 -50 82 0
1.0 83 67 0
1.0 78 26 0
1.0 -76 131 0
1.0 -13 -73 0
1.0 51 -32 0
1.0 -20 -109 0
1.0 110 132 0
1.0 -117 98 0
1.0 -127 64 0
1.0 -90 46 0
1.0 36 58 0
1.0 -130 42 0
1.0 -74 -11 0
1.0 -120 -81 0
1.0 72 140 0
1.0 -98 -135 0
1.0 59 71 0
1.0 117 123 0
1.0 40 78 0
1.0 120 46 0
1.0 56 50 0
1.0 -130 97 0
1.0 -97 124 0
1.0 -119 59 0
1.0 130 -6 0
1.0 -129 80 0
1.0 18 -38 0
1.0 83 -128 0
1.0 37 54 0
1.0 -11 -16 0
1.0 140 -55 0
1.0 114 -18 0
1.0 24 62 0
1.0 2 46 0
1.0 83 98 0
1.0 85 -66 0
1.0 120 -55 0
1.0 -71 94 0
1.0 8 -118 0
1.0 -136 63 0
1.0 125 -11 0
1.0 56 -70 0
1.0 28 -23 0
1.0 -88 47 0
1.0 102 99 0
1.0 -53 14 0
1.0 132 -8 0
1.0 71 125 0
1.0 136 36 0
1.0 106 -49 0
1.0 -71 74 0
1.0 -120 -56 0
1.0 -15 3 0
1.0 -17 73 0
1.0 -81 28 0
1.0 12 139 0
1.0 34 -109 0
1.0 -17 -107 0
1.0 -41 95 0
1.0 -10 52 0
1.0 -55 -73 0
1.0 -6 -77 0
1.0 -104 -73 0
1.0 -72 -23 0
1.0 -131 38 0
1.0 -5 96 0
1.0 50 60 0
1.0 -112 26 0
1.0 -99 -35 0
1.0 111 -35 0
1.0 107 7 0
1.0 29 30 0
1.0 68 -108 0
1.0 -64 -121 0
1.0 41 33 0
1.0 117 37 0
1.0 -133 128 0
1.0 -38 56 0
1.0 -105 -31 0
1.0 35 92 0
1.0 118 -133 0
1.0 -109 39 0
1.0 -72 11 0
1.0 47 100 0
1.0 88 -42 0
1.0 97 59 0
1.0 90 -101 0
1.0 -52 115 0
1.0 -107 -51 0
1.0 -89 127 0
1.0 137 21 0
1.0 -120 128 0
1.0 29 -8 0
1.0 66 81 0
1.0 -42 -101 0
1.0 -75 124 0
1.0 -34 -111 0
1.0 98 -61 0
1.0 -81 71 0
1.0 -59 -81 0
1.0 -88 41 0
1.0 122 119 0
1.0 -80 25 0
1.0 9 100 0
1.0 70 32 0
1.0 -93 27 0
1.0 -98 121 0
1.0 -62 83 0
1.0 123 -36 0
1.0 -15 -50 0
1.0 -75 -104 0
1.0 -63 -24 0
1.0 56 8 0
1.0 35 -4 0
1.0 125 135 0
1.0 77 111 0
1.0 6 77 0
1.0 -126 12 0
1.0 116 83 0
1.0 106 127 0
1.0 134 52 0
1.0 55 70 0
1.0 -65 28 0
1.0 139 -61 0
1.0 85 -25 0
1.0 -139 -121 0
1.0 123 -111 0
1.0 -2 68 0
1.0 -97 132 0
1.0 -12 7 0
1.0 91 -92 0
1.0 12 -42 0
1.0 67 86 0
1.0 66 126 0
1.0 96 -54 0
1.0 122 -120 0
1.0 -111 -117 0
1.0 123 -54 0
1.0 5 60 0
1.0 -102 48 0
1.0 -133 27 0
1.0 -13 -100 0
1.0 13 -124 0
1.0 -103 -74 0
1.0 50 35 0
1.0 -89 -78 0
1.0 -137 -129 0
1.0 -36 84 0
1.0 -111 -79 0
1.0 -38 52 0
1.0 35 -14 0
1.0 -87 -116 0
1.0 10 -128 0
1.0 65 135 0
1.0 123 21 0
1.0 105 -6 0
1.0 84 -132 0
1.0 43 -8 0
1.0 -22 -76 0
1.0 -52 7 0
1.0 134 -20 0
1.0 -71 -121 0
1.0 1 130 0
1.0 -36 131 0
1.0 48 71 0
1.0 -103 8 0
1.0 -83 -45 0
1.0 -9 11 0
1.0 -30 -2 0
1.0 122 -101 0
1.0 -90 -107 0
1.0 97 77 0
1.0 8 -82 0
1.0 89 136 0
1.0 -40 98 0
1.0 108 -63 0
1.0 -64 41 0
1.0 2 -7 0
1.0 -114 -15 0
1.0 -92 -89 0
1.0 30 -135 0
1.0 130 78 0
1.0 -35 131 0
1.0 -53 -129 0
1.0 29 95 0
1.0 -101 -50 0
1.0 65 58 0
1.0 -6 80 0
1.0 74 44 0
1.0 -121 24 0
1.0 14 31 0
1.0 19 15 0
1.0 -109 66 0
1.0 115 58 0
1.0 116 -9 0
1.0 89 30 0
1.0 -74 30 0
1.0 54 39 0
1.0 -70 -87 0
1.0 -101 38 0
1.0 -103 -72 0
1.0 -130 -4 0
1.0 -13 -31 0
1.0 -61 -102 0
1.0 132 69 0
1.0 -108 117 0
1.0 -64 107 0
1.0 -4 -120 0
1.0 52 94 0
1.0 97 -20 0
1.0 51 -93 0
1.0 -54 53 0
1.0 -122 -11 0
1.0 -128 64 0
1.0 -31 111 0
1.0 -90 29 0
1.0 122 -43 0
1.0 63 -49 0
1.0 -1 117 0
1.0 -30 47 0
1.0 -58 51 0
1.0 -115 86 0
1.0 56 31 0
1.0 60 38 0
1.0 -81 49 0
1.0 -97 -27 0
1.0 4 59 0
1.0 105 111 0
1.0 22 -4 0
1.0 90 23 0
1.0 54 -39 0
1.0 77 17 0
1.0 65 135 0
1.0 -22 137 0
1.0 55 129 0
1.0 100 -101 0
1.0 -105 109 0
1.0 132 116 0
1.0 15 -69 0
1.0 -86 34 0
1.0 29 128 0
1.0 -124 8 0
1.0 137 -131 0
1.0 -92 99 0
1.0 -68 52 0
1.0 -28 29 0
1.0 -98 123 0
1.0 17 99 0
1.0 -87 83 0
1.0 -90 -28 0
1.0 19 -25 0
1.0 124 117 0
1.0 -29 137 0
1.0 -26 -75 0
1.0 57 -90 0
1.0 -48 -78 0
1.0 20 -73 0
1.0 100 -31 0
1.0 -56 98 0
1.0 -74 -115 0
1.0 112 -61 0
1.0 -135 116 0
1.0 -65 -6 0
1.0 -84 -103 0
1.0 -35 -30 0
1.0 -61 -129 0
1.0 86 61 0
1.0 -36 105 0
1.0 25 140 0
1.0 -115 124 0
1.0 130 -55 0
1.0 18 118 0
1.0 7 109 0
1.0 97 20 0
1.0 81 -58 0
1.0 -23 45 0
1.0 45 128 0
1.0 112 -137 0
1.0 51 70 0
1.0 -47 69 0
1.0 -37 -29 0
1.0 49 -22 0
1.0 -79 -99 0
1.0 3 88 0
1.0 75 -66 0
1.0 -124 7 0
1.0 -40 -50 0
1.0 31 12 0
1.0 -132 139 0
1.0 -36 -96 0
1.0 -61 53 0
1.0 -61 -44 0
1.0 110 -129 0
1.0 136 47 0
1.0 96 -106 0
1.0 118 -9 0
1.0 -8 14 0
1.0 109 74 0
1.0 127 33 0
1.0 76 121 0
1.0 -109 -108 0
1.0 -14 -5 0
1.0 -111 -2 0
1.0 11 3 0
1.0 16 -38 0
1.0 112 -96 0
1.0 128 52 0
1.0 -32 -49 0
1.0 -17 107 0
1.0 -112 -103 0
1.0 105 -96 0
1.0 -98 -86 0
1.0 -124 -52 0
1.0 7 -112 0
1.0 23 60 0
1.0 108 -27 0
1.0 134 -18 0
1.0 121 -14 0
1.0 109 77 0
1.0 22 51 0
1.0 -102 -138 0
1.0 -110 -13 0
1.0 72 22 0
1.0 48 99 0
1.0 117 -38 0
1.0 51 54 0
1.0 -130 101 0
1.0 11 -126 0
1.0 -124 -116 0
1.0 -129 45 0
1.0 -66 -130 0
1.0 89 124 0
1.0 21 -22 0
1.0 -76 62 0
1.0 -22 35 0
1.0 21 94 0
1.0 -69 87 0
1.0 -132 41 0
1.0 30 -77 0
1.0 60 -46 0
1.0 68 64 0
1.0 126 100 0
1.0 135 6 0
1.0 100 46 0
1.0 -133 -114 0
1.0 14 62 0
1.0 138 71 0
1.0 -116 64 0
1.0 127 -9 0
1.0 -108 -116 0
1.0 -122 -20 0
1.0 -65 134 0
1.0 108 -53 0
1.0 114 -82 0
1.0 13 -45 0
1.0 108 -27 0
1.0 35 78 0
1.0 -53 46 0
1.0 -65 -81 0
1.0 75 83 0
1.0 135 -89 0
1.0 -30 47 0
1.0 92 108 0
1.0 135 63 0
1.0 140 80 0
1.0 -126 136 0
1.0 77 62 0
1.0 4 -87 0
1.0 -35 76 0
1.0 -123 -45 0
1.0 -12 137 0
1.0 59 8 0
1.0 -88 -66 0
1.0 -62 -59 0
1.0 121 -22 0
1.0 -108 62 0
1.0 138 -87 0
1.0 131 33 0
1.0 29 -49 0
1.0 56 43 0
1.0 -108 118 0
1.0 37 58 0
1.0 79 35 0
1.0 97 -122 0
1.0 -68 115 0
1.0 7 129 0
1.0 -37 -69 0
1.0 -111 -130 0
1.0 -108 30 0
1.0 87 135 0
1.0 -30 -21 0
1.0 -2 120 0
1.0 -94 -14 0
1.0 -2 49 0
1.0 -117 -119 0
1.0 108 -84 0
1.0 -113 135 0
1.0 -129 99 0
1.0 119 -14 0
1.0 133 -84 0
1.0 97 -38 0
1.0 -86 42 0
1.0 21 -125 0
1.0 69 37 0
1.0 -32 2 0
1.0 101 -43 0
1.0 56 43 0
1.0 -126 -110 0
1.0 7 -42 0
1.0 83 -36 0
1.0 -21 -25 0
1.0 -62 -14 0
1.0 -16 -89 0
1.0 131 12 0
1.0 -54 115 0
1.0 -84 -90 0
1.0 131 -22 0
1.0 57 -56 0
1.0 81 128 0
1.0 -2 15 0
1.0 -104 -68 0
1.0 -79 -47 0
1.0 22 -95 0
1.0 44 13 0
1.0 -34 -96 0
1.0 12 -5 0
1.0 -132 -54 0
1.0 69 48 0
1.0 -116 2 0
1.0 49 125 0
1.0 79 -78 0
1.0 90 -89 0
1.0 -44 125 0
1.0 129 -103 0
1.0 -16 -100 0
1.0 -8 -123 0
1.0 125 101 0
1.0 -86 83 0
1.0 21 -138 0
1.0 -87 -23 0
1.0 7 -28 0
1.0 -130 53 0
1.0 -12 90 0
1.0 73 66 0
1.0 -27 -40 0
1.0 -122 54 0
1.0 -52 -1 0
1.0 -24 65 0
1.0 92 -34 0
1.0 -86 -2 0
1.0 -91 36 0
1.0 -101 -120 0
1.0 -19 -30 0
1.0 84 -95 0
1.0 -96 -114 0
1.0 39 -121 0
1.0 -15 -34 0
1.0 35 -17 0
1.0 53 34 0
1.0 13 88 0
1.0 117 100 0
1.0 54 33 0
1.0 -6 49 0
1.0 30 137 0
1.0 31 105 0
1.0 121 60 0
1.0 94 -58 0
1.0 -5 -47 0
1.0 6 28 0
1.0 60 98 0
1.0 -6 57 0
1.0 -54 -2 0
1.0 107 -82 0
1.0 -1 -58 0
1.0 116 -26 0
1.0 -72 -57 0
1.0 -85 3 0
1.0 100 -66 0
1.0 123 37 0
1.0 -39 79 0
1.0 -20 127 0
1.0 -44 72 0
1.0 -98 35 0
1.0 -92 99 0
1.0 102 104 0
1.0 29 108 0
1.0 4 27 0
1.0 105 -25 0
1.0 11 140 0
1.0 -71 118 0
1.0 13 -72 0
1.0 -31 -24 0
1.0 127 39 0
1.0 6 79 0
1.0 106 73 0
1.0 98 -100 0
1.0 99 57 0
1.0 35 96 0
1.0 27 115 0
1.0 138 -11 0
1.0 -49 101 0
1.0 40 27 0
1.0 -99 116 0
1.0 75 128 0
1.0 44 -46 0
1.0 -1 120 0
1.0 -94 -137 0
1.0 -7 132 0
1.0 -93 -76 0
1.0 -102 33 0
1.0 -8 -71 0
1.0 -58 -1 0
1.0 47 38 0
1.0 -18 -25 0
1.0 22 18 0
1.0 -10 -139 0
1.0 -75 52 0
1.0 -84 -90 0
1.0 21 -74 0
1.0 74 -8 0
1.0 46 79 0
1.0 104 -102 0
1.0 120 -97 0
1.0 -96 95 0
1.0 6 -45 0
1.0 135 23 0
1.0 -96 73 0
1.0 80 -132 0
1.0 71 37 0
1.0 138 -83 0
1.0 -39 -31 0
1.0 126 -57 0
1.0 -102 -90 0
1.0 -112 120 0
1.0 -52 -63 0
1.0 -55 -106 0
1.0 2 -25 0
1.0 -107 37 0
1.0 68 83 0
1.0 140 -25 0
1.0 114 -125 0
1.0 104 28 0
1.0 90 109 0
1.0 -75 -125 0
1.0 -10 -6 0
1.0 -43 -53 0
1.0 136 -122 0
1.0 -6 -66 0
1.0 50 14 0
1.0 41 -78 0
1.0 -47 -37 0
1.0 22 123 0
1.0 129 133 0
1.0 -46 128 0
1.0 109 -22 0
1.0 -88 -133 0
1.0 7 19 0
1.0 96 40 0
1.0 -77 -32 0
1.0 -14 39 0
1.0 32 -135 0
1.0 -122 -32 0
1.0 54 15 0
1.0 -7 19 0
1.0 37 -8 0
1.0 -47 -97 0
1.0 -129 116 0
1.0 14 70 0
1.0 -64 36 0
1.0 -68 -101 0
1.0 -115 -62 0
1.0 -80 -119 0
1.0 -126 55 0
1.0 12 -102 0
